p wcnf 128 192 193 
1 47 -88 0 
1 62 -38 0 
1 117 -13 0 
1 -112 46 0 
1 54 -119 0 
1 -95 40 0 
1 -94 -14 0 
1 80 -93 0 
1 -88 -110 0 
1 -68 -38 0 
1 -41 -69 0 
1 52 46 0 
1 -84 -73 0 
1 -72 -60 0 
1 68 -84 0 
1 -109 -33 0 
1 34 108 0 
1 -61 45 0 
1 -26 16 0 
1 -25 100 0 
1 7 59 0 
1 119 108 0 
1 26 -75 0 
1 -53 108 0 
1 48 122 0 
1 -117 83 0 
1 24 17 0 
1 4 128 0 
1 -60 -45 0 
1 -38 -86 0 
1 63 26 0 
1 123 67 0 
1 -23 84 0 
1 123 -48 0 
1 -69 -109 0 
1 -39 2 0 
1 -104 105 0 
1 42 19 0 
1 38 23 0 
1 -34 85 0 
1 44 -53 0 
1 -16 120 0 
1 12 -106 0 
1 22 111 0 
1 -73 97 0 
1 -23 62 0 
1 -84 -22 0 
1 -27 16 0 
1 36 -54 0 
1 1 -90 0 
1 121 106 0 
1 -60 -80 0 
1 -114 -11 0 
1 94 57 0 
1 16 -63 0 
1 5 -41 0 
1 -67 114 0 
1 109 -111 0 
1 -28 10 0 
1 -62 3 0 
1 69 -122 0 
1 91 -2 0 
1 59 -92 0 
1 86 98 0 
1 61 -124 0 
1 101 92 0 
1 -52 -33 0 
1 80 99 0 
1 -65 63 0 
1 -104 -27 0 
1 113 108 0 
1 -41 -62 0 
1 68 -52 0 
1 -114 -12 0 
1 -58 82 0 
1 -9 116 0 
1 35 -91 0 
1 73 128 0 
1 111 33 0 
1 66 -33 0 
1 -83 -124 0 
1 54 -73 0 
1 -114 -44 0 
1 33 31 0 
1 -124 89 0 
1 49 34 0 
1 64 -46 0 
1 -62 66 0 
1 100 -103 0 
1 32 99 0 
1 15 102 0 
1 13 34 0 
1 1 20 0 
1 100 79 0 
1 51 87 0 
1 116 21 0 
1 9 109 0 
1 119 -15 0 
1 31 124 0 
1 10 -39 0 
1 -16 -12 0 
1 -12 -33 0 
1 -55 97 0 
1 94 -2 0 
1 80 106 0 
1 -54 -53 0 
1 36 -121 0 
1 -69 -42 0 
1 -78 43 0 
1 -27 -45 0 
1 71 16 0 
1 88 -82 0 
1 -80 -113 0 
1 55 86 0 
1 -10 -29 0 
1 -23 78 0 
1 -112 -15 0 
1 -125 23 0 
1 123 112 0 
1 -56 -113 0 
1 -109 66 0 
1 72 126 0 
1 57 64 0 
1 -63 -36 0 
1 -87 64 0 
1 -18 -110 0 
1 -74 -71 0 
1 -19 123 0 
1 -122 58 0 
1 -34 -49 0 
1 113 -77 0 
1 -70 74 0 
1 -23 75 0 
1 5 -76 0 
1 93 -77 0 
1 111 -74 0 
1 108 36 0 
1 -27 86 0 
1 -45 49 0 
1 82 -72 0 
1 -107 -92 0 
1 29 -120 0 
1 119 -40 0 
1 -112 62 0 
1 116 38 0 
1 -48 -94 0 
1 -38 -33 0 
1 -5 -91 0 
1 63 -32 0 
1 57 -3 0 
1 49 77 0 
1 95 32 0 
1 -38 105 0 
1 37 95 0 
1 4 -12 0 
1 83 -120 0 
1 -124 29 0 
1 -118 -27 0 
1 113 128 0 
1 86 19 0 
1 -79 -113 0 
1 51 112 0 
1 -98 70 0 
1 -64 -88 0 
1 122 33 0 
1 86 27 0 
1 -106 -31 0 
1 -117 -48 0 
1 -70 119 0 
1 16 -115 0 
1 -105 -60 0 
1 -60 93 0 
1 71 4 0 
1 -67 12 0 
1 9 -90 0 
1 59 -73 0 
1 -119 6 0 
1 -70 -18 0 
1 58 116 0 
1 -37 -83 0 
1 -128 -123 0 
1 -123 10 0 
1 115 -61 0 
1 55 88 0 
1 53 81 0 
1 -71 112 0 
1 111 26 0 
1 116 18 0 
1 -12 -118 0 
1 121 -92 0 
1 81 94 0 
1 60 120 0 
